p cnf 21 8
e 1 0
a 2 3 4 0
e 5 0
a 6 7 0
e 8 9 10 0
a 11 12 0
e 13 0
a 14 15 0
e 16 17 18 0
a 19 0
e 20 21 0
19 -21 0
-14 -5 1 -2 0
12 -5 -18 11 -7 0
12 -1 -9 0
5 19 0
-18 6 2 0
8 -17 -6 -12 0
-16 7 0
